============================[ Problem Statistics ]=============================|                                                                             ||  Number of variables:          4242                                         ||  Number of clauses:            9831                                         ||  Parse time:                   0.24 s                                       ||                                                                             |============================[ Search Statistics ]==============================| Conflicts |          ORIGINAL         |          LEARNT          | Progress ||           |    Vars  Clauses Literals |    Limit  Clauses Lit/Cl |          |===============================================================================|       100 |    1591     6036   350677 |     2213      100     53 | 62.501 % |===============================================================================restarts              : 2conflicts             : 137            (356 /sec)decisions             : 307            (0.00 % random) (797 /sec)propagations          : 9928           (25787 /sec)conflict literals     : 8544           (95.52 % deleted)CPU time              : 0.385 sSATISFIABLE